rc2_10_2

VEHICLE
NUMBER   CAPACITY
250     1000

CUSTOMER
CUST NO. XCOORD.  YCOORD.  DEMAND  READY TIME DUE DATE  SERVICE TIME

0   250    250     0     0    7284     0
663 178 72 23 0 7082 10
543 168 59 6 1464 1584 10
723 200 78 31 0 7095 10
700 165 59 27 3771 3891 10
994 209 68 27 6272 6392 10
940 224 56 13 0 7079 10
109 151 81 28 0 7079 10
125 150 68 23 1691 1811 10
450 179 75 13 2960 3080 10
190 187 73 18 1168 1288 10
187 157 38 3 4191 4311 10
413 210 29 13 4203 4323 10
